speck_results/milp_results/speck_block_cipher_p32_k64_o32/key_greater/round_1/result_2.txt
% Generated FlatZinc statistics:
%%%mzn-stat: paths=0
%%%mzn-stat: flatBoolVars=391
%%%mzn-stat: flatIntVars=226
%%%mzn-stat: flatBoolConstraints=3
%%%mzn-stat: flatIntConstraints=426
%%%mzn-stat: evaluatedReifiedConstraints=388
%%%mzn-stat: method="minimize"
%%%mzn-stat: flatTime=0.0522186
%%%mzn-stat-end

speck_k64_p32_o32_r1, and window_size=2
carries modadd_0_1:[0, 0, 0, 0, 0, 0, 0, 0, 0, 0, 0, 0, 0, 0, 0, 0]
cipher_output_0_6_input:[0, 0, 0, 0, 0, 0, 0, 0, 0, 0, 0, 0, 0, 0, 0, 0, 0, 0, 0, 0, 0, 0, 0, 0, 0, 0, 0, 0, 0, 0, 1, 0]
Probability: 0
% time elapsed: 0.10 s
----------
==========
% time elapsed: 0.10 s
%%%mzn-stat: nSolutions=1
%%%mzn-stat-end
